% Logging successfully configured
=====UNKNOWN=====
% time elapsed: 1799.98 s
%%%mzn-stat: initTime=0.026035266
%%%mzn-stat: nodes=3742129
%%%mzn-stat: restarts=0
%%%mzn-stat: peakDepth=115
%%%mzn-stat: solveTime=1799.15072786
%%%mzn-stat: variables=1851
%%%mzn-stat: propagators=1487
%%%mzn-stat: failures=1339356
%%%mzn-stat: propagations=67065002
%%%mzn-stat: nogoods=1339356
%%%mzn-stat: numAtomicConstraintsPropagated=0
%%%mzn-stat: allDifferentNumber1TotalHallSetSize=17584262
%%%mzn-stat: allDifferentNumber1NumberOfConflicts=727500
%%%mzn-stat: allDifferentNumber1MaxHallSetSize=113
%%%mzn-stat: allDifferentNumber1PropagationsTotal=7143792
%%%mzn-stat: allDifferentNumber1PropagationsThatFoundConflict=727500
%%%mzn-stat: circuitNumber2PropagationsThatFoundConflict=372171
%%%mzn-stat: circuitNumber2TotalFixedEdgesAtConflict=43450346
%%%mzn-stat: circuitNumber2NumberOfConflicts=372171
%%%mzn-stat: circuitNumber2PropagationsThatPruned=663616
%%%mzn-stat: circuitNumber2PropagationsTotal=4698631
%%%mzn-stat: AverageConflictSize=29.358622352832256
%%%mzn-stat: NumUnitNogoodsLearned=0
%%%mzn-stat: AverageLearnedNogoodLength=67.899908612796
%%%mzn-stat: AverageBacktrackAmount=0
%%%mzn-stat: AverageLbd=42.18972103010701
%%%mzn-stat: 2AutonomousSearchNumBackupCalled=0
%%%mzn-stat: 2AutonomousSearchNumPredicatesRemoved=0
%%%mzn-stat: 2AutonomousSearchNumCalls=0
%%%mzn-stat: 2AutonomousSearchNumPredicatesAdded=12152
%%%mzn-stat: 2AutonomousSearchAverageSizeOfHeap=0
%%%mzn-stat: 2AutonomousSearchNumAssignedPredicatesEncountered=0
%%%mzn-stat-end
